language ESSENCE' 1.0
$ Generated from file ../../j30/j3019_3.mm
letting jobs = 32
letting horizon = 31
letting resourcesRenew = 2
letting resourcesNonrenew = 2
letting successors = [[2, 3, 4], [6, 10, 15], [11, 28], [5, 8, 9], [6, 16], [7, 12, 14], [13, 23, 25], [26, 27, 30], [15, 17, 20], [30], [21, 31], [18, 24], [26, 27], [17, 30], [19, 23], [18, 22, 24], [18, 21, 26], [25], [29], [21, 31], [22], [25], [24, 28], [27], [29], [28], [31], [29], [32], [32], [32], []]
letting durations = [[0], [1, 2, 4], [4, 6, 8], [1, 5, 6], [4, 5, 7], [2, 5, 6], [4, 4, 10], [3, 10, 10], [6, 7, 9], [3, 5, 7], [3, 4, 9], [6, 7, 8], [3, 4, 5], [3, 4, 6], [1, 2, 3], [1, 3, 7], [2, 3, 8], [1, 4, 6], [3, 9, 10], [8, 9, 10], [1, 9, 10], [5, 6, 8], [3, 10, 10], [8, 8, 9], [3, 7, 9], [3, 7, 7], [3, 4, 9], [2, 5, 8], [1, 1, 5], [1, 7, 10], [6, 7, 8], [0]]
letting resourceUsage = [[[0, 0, 0, 0]], [[0, 10, 1, 0], [7, 0, 0, 7], [0, 7, 0, 4]], [[6, 0, 0, 9], [0, 5, 2, 0], [5, 0, 0, 8]], [[0, 8, 0, 7], [0, 6, 7, 0], [5, 0, 0, 7]], [[8, 0, 0, 6], [7, 0, 6, 0], [0, 8, 6, 0]], [[8, 0, 0, 6], [7, 0, 10, 0], [6, 0, 3, 0]], [[8, 0, 2, 0], [7, 0, 0, 7], [6, 0, 2, 0]], [[1, 0, 0, 7], [0, 3, 0, 7], [0, 7, 8, 0]], [[7, 0, 0, 6], [7, 0, 0, 5], [5, 0, 6, 0]], [[6, 0, 0, 7], [0, 2, 0, 7], [2, 0, 0, 6]], [[6, 0, 0, 9], [0, 8, 5, 0], [6, 0, 3, 0]], [[3, 0, 7, 0], [3, 0, 0, 9], [0, 7, 7, 0]], [[0, 9, 8, 0], [2, 0, 0, 4], [0, 8, 7, 0]], [[0, 8, 10, 0], [0, 4, 9, 0], [2, 0, 8, 0]], [[5, 0, 5, 0], [3, 0, 0, 6], [2, 0, 4, 0]], [[7, 0, 10, 0], [0, 9, 0, 3], [6, 0, 0, 1]], [[10, 0, 4, 0], [0, 8, 0, 10], [9, 0, 2, 0]], [[0, 9, 5, 0], [4, 0, 5, 0], [2, 0, 4, 0]], [[0, 6, 5, 0], [4, 0, 5, 0], [3, 0, 0, 1]], [[0, 5, 9, 0], [8, 0, 8, 0], [8, 0, 0, 5]], [[8, 0, 6, 0], [0, 6, 0, 8], [7, 0, 0, 6]], [[6, 0, 0, 4], [0, 1, 7, 0], [6, 0, 3, 0]], [[7, 0, 0, 8], [0, 4, 0, 8], [0, 3, 4, 0]], [[0, 3, 7, 0], [4, 0, 0, 5], [0, 3, 6, 0]], [[0, 6, 0, 5], [5, 0, 8, 0], [0, 5, 7, 0]], [[5, 0, 6, 0], [4, 0, 5, 0], [0, 1, 0, 5]], [[0, 7, 7, 0], [5, 0, 0, 7], [0, 7, 0, 3]], [[5, 0, 0, 8], [4, 0, 0, 6], [0, 9, 2, 0]], [[5, 0, 0, 9], [0, 9, 2, 0], [0, 6, 0, 8]], [[7, 0, 0, 7], [4, 0, 5, 0], [4, 0, 0, 3]], [[0, 2, 0, 5], [0, 2, 4, 0], [3, 0, 0, 3]], [[0, 0, 0, 0]]]
letting resourceLimits = [30, 32, 129, 137]
letting candidateParents = [[], [1, 3, 4, 8], [1, 2, 4, 5, 6, 7, 8, 9, 10, 12, 13, 14, 15, 16, 17, 18, 19, 23, 30], [1], [2, 4], [2, 3, 5, 8, 10], [3, 6, 8, 9, 10, 11, 16], [2, 3, 4, 5, 6, 7, 9, 10, 11, 12, 13, 14, 15, 16, 17, 18, 19, 20, 21, 23], [2, 3, 4, 8, 10], [2, 3, 4, 5, 6, 7, 8, 9, 11, 12, 13, 14, 15, 16, 17, 18, 19, 20, 21, 22, 23, 24, 25, 26, 27, 28, 29], [2, 3, 5, 6, 7, 8, 9, 10, 12, 13, 14, 15, 16, 17, 18, 19, 20, 23, 26, 30], [3, 6, 8, 9, 10, 11, 15, 16], [3, 7, 8, 10, 11, 12, 14, 15, 16, 17, 18, 19, 20, 21, 23, 30], [3, 6, 7, 8, 9, 10, 11, 12, 13, 15, 16, 19, 20, 23], [3, 6, 8, 9, 10, 11, 14, 16], [2, 3, 5, 6, 7, 8, 9, 10, 11, 12, 14, 15, 17, 19, 30], [3, 7, 8, 9, 10, 11, 12, 13, 14, 15, 16, 19, 20, 23, 30], [3, 8, 10, 11, 12, 13, 16, 17, 19, 20, 21, 22, 23, 24, 26, 27, 28, 30], [3, 7, 8, 10, 11, 12, 13, 14, 15, 16, 17, 18, 20, 21, 22, 23, 24, 25, 26, 27, 28, 30], [3, 6, 7, 8, 9, 10, 11, 12, 14, 15, 16, 17, 19, 30], [8, 10, 11, 13, 17, 18, 19, 20, 26, 28, 30], [8, 10, 13, 18, 19, 21, 24, 26, 28, 30], [3, 7, 8, 10, 11, 14, 15, 16, 19, 30], [3, 8, 10, 11, 12, 13, 14, 16, 17, 18, 19, 23, 30], [8, 10, 13, 18, 19, 22, 24, 26, 27, 28, 30], [3, 8, 10, 11, 12, 13, 16, 17, 18, 19, 20, 21, 22, 23, 24, 25, 27, 30], [8, 10, 13, 18, 19, 21, 22, 24, 26, 28, 30], [3, 10, 11, 18, 19, 20, 21, 22, 24, 25, 26, 27, 30], [10, 19, 25, 27, 28, 30], [3, 7, 8, 9, 10, 11, 12, 13, 14, 15, 16, 17, 18, 19, 20, 21, 22, 23, 24, 25, 26, 27, 28, 29], [10, 18, 19, 22, 25, 26, 27, 28, 29, 30], [29, 30, 31]]
